language Essence 1.3

letting class be function(1 --> 1, 2 --> 1, 3 --> 2, 4 --> 1, 5 --> 1, 6 --> 1, 7 --> 2)
letting deck_length be 5
letting deck_width be 100
letting length be function(1 --> 3, 2 --> 4, 3 --> 4, 4 --> 5, 5 --> 5, 6 --> 4, 7 --> 2)
letting n_classes be 2
letting n_containers be 7
letting separation be function()
letting width be function(1 --> 1, 2 --> 5, 3 --> 11, 4 --> 23, 5 --> 24, 6 --> 1, 7 --> 4)
